c 103_3_checker_6cl.cnf
c
c field = 103
c formula set type = 3_checker_6cl
c
p cnf 6 34
198 
200 
202 
-197 
-194 
-206 
199 
201 
203 
-196 
-195 
-207 
198 
200 
202 
-207 
-196 
-208 
199 
201 
203 
-206 
-197 
-209 
200 
202 
206 
-199 
-196 
-208 
201 
203 
207 
-198 
-197 
-209 
114 
144 
174 
-85 
-54 
-234 
115 
145 
175 
-84 
-55 
-235 
114 
144 
174 
-235 
-84 
-264 
115 
145 
175 
-234 
-85 
-265 
144 
174 
234 
-115 
-84 
-264 
145 
175 
235 
-114 
-85 
-265 
144 
174 
234 
-265 
-114 
-294 
145 
175 
235 
-264 
-115 
-295 
174 
234 
264 
-145 
-114 
-294 
175 
235 
265 
-144 
-115 
-295 
174 
234 
264 
-295 
-144 
-324 
175 
235 
265 
-294 
-145 
-325 
234 
264 
294 
-175 
-144 
-324 
235 
265 
295 
-174 
-145 
-325 
234 
264 
294 
-325 
-174 
-354 
235 
265 
295 
-324 
-175 
-355 
108 
140 
172 
-77 
-44 
-236 
109 
141 
173 
-76 
-45 
-237 
108 
140 
172 
-237 
-76 
-268 
109 
141 
173 
-236 
-77 
-269 
140 
172 
236 
-109 
-76 
-268 
141 
173 
237 
-108 
-77 
-269 
176 
232 
260 
-289 
-148 
-316 
177 
233 
261 
-288 
-149 
-317 
232 
260 
288 
-177 
-148 
-316 
233 
261 
289 
-176 
-149 
-317 
232 
260 
288 
-317 
-176 
-344 
233 
261 
289 
-316 
-177 
-345 
